9
2147483647 54 93 90 6 11 22 57 40 
54 2147483647 99 97 12 91 12 63 41 
93 99 2147483647 71 74 36 9 100 81 
90 97 71 2147483647 6 50 69 4 56 
6 12 74 6 2147483647 41 39 12 2 
11 91 36 50 41 2147483647 12 61 80 
22 12 9 69 39 12 2147483647 94 26 
57 63 100 4 12 61 94 2147483647 96 
40 41 81 56 2 80 26 96 2147483647 
